
Gurobi 10.0.1 (linux64) logging started Sun Nov 26 15:59:26 2023

Set parameter LogFile to value "ArtificialInstance/ExperimentV2/S3T5K2/AdRo/gurobiSpRo48.txt"
Gurobi Optimizer version 10.0.1 build v10.0.1rc0 (linux64)

CPU model: AMD EPYC 7H12 64-Core Processor, instruction set [SSE2|AVX|AVX2]
Thread count: 128 physical cores, 128 logical processors, using up to 32 threads

Academic license 656792 - for non-commercial use only - registered to b.___@student.vu.nl
Optimize a model with 11299 rows, 10573 columns and 41135 nonzeros
Model fingerprint: 0xb2db9c10
Variable types: 1 continuous, 10572 integer (10572 binary)
Coefficient statistics:
  Matrix range     [1e+00, 4e+01]
  Objective range  [1e+00, 2e+01]
  Bounds range     [1e+00, 1e+00]
  RHS range        [1e+00, 1e+00]
Presolve removed 4820 rows and 4481 columns
Presolve time: 0.14s
Presolved: 6479 rows, 6092 columns, 23979 nonzeros
Variable types: 1 continuous, 6091 integer (6091 binary)

Root relaxation: objective 8.598139e+01, 2152 iterations, 0.08 seconds (0.05 work units)

    Nodes    |    Current Node    |     Objective Bounds      |     Work
 Expl Unexpl |  Obj  Depth IntInf | Incumbent    BestBd   Gap | It/Node Time

     0     0   85.98139    0   26          -   85.98139      -     -    0s
H    0     0                     134.5694719   85.98139  36.1%     -    0s
H    0     0                      85.9813928   85.98139  0.00%     -    0s

Explored 1 nodes (4127 simplex iterations) in 0.33 seconds (0.23 work units)
Thread count was 32 (of 128 available processors)

Solution count 2: 85.9814 134.569 

Optimal solution found (tolerance 1.00e-04)
Best objective 8.598139279251e+01, best bound 8.598139279251e+01, gap 0.0000%
